Reading model...
...model read.
creating competitive generators file...
...competitive generators recorded.
Loading data...
.. real-time data read.
Compiling instance...
...instance created.
Creating Offer Mitigation (model will solve as dispatch if TRUE)...
NOTE: storage offers will not be mitigated
...storage offer mitigation file created
Converting model to MPEC...
...converted
NOTE: initial MIP solve with only storage competitive to get feasible solution
Solving...

Welcome to IBM(R) ILOG(R) CPLEX(R) Interactive Optimizer 12.9.0.0
  with Simplex, Mixed Integer & Barrier Optimizers
5725-A06 5725-A29 5724-Y48 5724-Y49 5724-Y54 5724-Y55 5655-Y21
Copyright IBM Corp. 1988, 2019.  All Rights Reserved.

Type 'help' for a list of available commands.
Type 'help' followed by a command name for more
information on commands.

CPLEX> Logfile 'cplex.log' closed.
Logfile 'C:\Users\llavin\Desktop\test826\logs\tmp0qd9oun4.cplex.log' open.
CPLEX> New value for parallel optimization mode: -1
CPLEX> New value for mixed integer optimality gap tolerance: 0.001
CPLEX> New value for feasibility tolerance: 1e-09
CPLEX> New value for deterministic time limit in ticks: 150000
CPLEX> Problem 'C:\Users\llavin\Desktop\test826\logs\tmpmxc78wg8.pyomo.lp' read.
Read time = 0.53 sec. (28.55 ticks)
CPLEX> Problem name         : C:\Users\llavin\Desktop\test826\logs\tmpmxc78wg8.pyomo.lp
Objective sense      : Maximize
Variables            :  107781  [Nneg: 1,  Box: 44056,  Free: 8928,
                                 Binary: 54796]
Objective nonzeros   :   19009
Linear constraints   :  246901  [Less: 82866,  Greater: 118424,  Equal: 45611]
  Nonzeros           :  619709
  RHS nonzeros       :  136514

Variables            : Min LB: -5000.000        Max UB: 1000000.       
Objective nonzeros   : Min   : 0.02500000       Max   : 3000.000       
Linear constraints   :
  Nonzeros           : Min   : 0.02500000       Max   : 1000000.       
  RHS nonzeros       : Min   : 0.02500000       Max   : 1000000.       
CPLEX> CPXPARAM_Parallel                                -1
CPXPARAM_Simplex_Tolerances_Feasibility          1.0000000000000001e-09
CPXPARAM_DetTimeLimit                            150000
CPXPARAM_MIP_Tolerances_MIPGap                   0.001
Tried aggregator 3 times.
MIP Presolve eliminated 172768 rows and 34051 columns.
MIP Presolve added 7723 rows and 0 columns.
MIP Presolve modified 53796 coefficients.
Aggregator did 26044 substitutions.
Reduced MIP has 55812 rows, 47302 columns, and 177814 nonzeros.
Reduced MIP has 18755 binaries, 0 generals, 0 SOSs, and 0 indicators.
Presolve time = 0.66 sec. (379.05 ticks)
Probing fixed 697 vars, tightened 10866 bounds.
Probing time = 0.45 sec. (17.45 ticks)
Tried aggregator 2 times.
MIP Presolve eliminated 1578 rows and 1405 columns.
MIP Presolve modified 7074 coefficients.
Aggregator did 96 substitutions.
Reduced MIP has 54138 rows, 45801 columns, and 172789 nonzeros.
Reduced MIP has 18056 binaries, 0 generals, 0 SOSs, and 0 indicators.
Presolve time = 0.33 sec. (280.46 ticks)
Probing fixed 0 vars, tightened 355 bounds.
Probing time = 0.59 sec. (19.04 ticks)
Clique table members: 96894.
MIP emphasis: balance optimality and feasibility.
MIP search method: dynamic search.
Parallel mode: opportunistic, using up to 32 threads.
Root relaxation solution time = 1.88 sec. (2964.73 ticks)

        Nodes                                         Cuts/
   Node  Left     Objective  IInf  Best Integer    Best Bound    ItCnt     Gap

      0     0    -2616.7255   240                  -2616.7255    12293         
      0     0    -2616.7255     8                   Cuts: 139    12358         
      0     0    -2617.1387     6                     Cuts: 5    12368         
      0     0    -2617.1387     7                     Cuts: 2    12370         
      0     0    -2617.1387     8                   Covers: 1    12371         
*     0+    0                        -2873.5890    -2617.1387             8.92%
      0    28    -2644.7594    45    -2873.5890  Impl Bds: 46    12704    8.90%
Elapsed time = 17.44 sec. (10718.57 ticks, tree = 0.05 MB, solutions = 0)
    244    90    -2665.4519    31    -2873.5890    -2624.0112    13712    8.69%
    522    97    -2693.6616    29    -2873.5890    -2624.0112    13723    8.69%
    797   277    -2734.2514    18    -2873.5890    -2624.0112    15734    8.69%
   1086   463    -2862.4202    12    -2873.5890    -2630.4580    18320    8.46%
   1402   868    -2768.9150    29    -2873.5890    -2635.3692    23033    8.29%
   1591  1086    -2844.4350     4    -2817.0172    -2646.7814    25990    6.04%
   1760  1068    -2742.8702    30    -2817.0172    -2658.4829    28992    5.63%
   1988  1119    -2766.4624    26    -2817.0172    -2658.4829    31154    5.63%
   2274  1147        cutoff          -2817.0172    -2666.0725    32275    5.36%
   3300  1365    infeasible          -2817.0172    -2699.1627    57809    4.18%
Elapsed time = 44.89 sec. (13829.73 ticks, tree = 14.05 MB, solutions = 2)
   4540   868    infeasible          -2817.0172    -2773.7273    83741    1.54%
   5633   678    -2789.2195    43    -2817.0172    -2801.2862    88773    0.56%
   5983   193    -2811.9884    18    -2817.0172    -2809.6900   100954    0.26%

Cover cuts applied:  8
Implied bound cuts applied:  216
Flow cuts applied:  91
Gomory fractional cuts applied:  46

Root node processing (before b&c):
  Real time             =   12.47 sec. (10567.38 ticks)
Parallel b&c, 32 threads:
  Real time             =   50.08 sec. (6479.39 ticks)
  Sync time (average)   =    6.87 sec.
  Wait time (average)   =    0.00 sec.
                          ------------
Total (root+branch&cut) =   62.55 sec. (17046.78 ticks)

Solution pool: 2 solutions saved.

MIP - Integer optimal, tolerance (0.001/1e-06):  Objective = -2.8170172205e+03
Current MIP best bound = -2.8142259548e+03 (gap = 2.79127, 0.10%)
Solution time =   62.58 sec.  Iterations = 102994  Nodes = 5993 (134)
Deterministic time = 17047.09 ticks  (272.41 ticks/sec)

CPLEX> Incumbent solution written to file 'C:\Users\llavin\Desktop\test826\logs\tmpfuuib531.cplex.sol'.
CPLEX> NOTE: no warmstart specified for MIP iteration, default behavior is true
NOTE: resolving with all competitive generators using storage-only solution to warmstart
Solving...

Welcome to IBM(R) ILOG(R) CPLEX(R) Interactive Optimizer 12.9.0.0
  with Simplex, Mixed Integer & Barrier Optimizers
5725-A06 5725-A29 5724-Y48 5724-Y49 5724-Y54 5724-Y55 5655-Y21
Copyright IBM Corp. 1988, 2019.  All Rights Reserved.

Type 'help' for a list of available commands.
Type 'help' followed by a command name for more
information on commands.

CPLEX> Logfile 'cplex.log' closed.
Logfile 'C:\Users\llavin\Desktop\test826\logs\tmpmbo8y_3_.cplex.log' open.
CPLEX> New value for parallel optimization mode: -1
CPLEX> New value for mixed integer optimality gap tolerance: 0.001
CPLEX> New value for feasibility tolerance: 1e-09
CPLEX> New value for deterministic time limit in ticks: 150000
CPLEX> Problem 'C:\Users\llavin\Desktop\test826\logs\tmp3_jge1s9.pyomo.lp' read.
Read time = 0.53 sec. (28.60 ticks)
CPLEX> MIP start file 'C:\Users\llavin\Desktop\test826\logs\tmp1jdy8lfv.cplex.mst' read.
CPLEX> Problem name         : C:\Users\llavin\Desktop\test826\logs\tmp3_jge1s9.pyomo.lp
Objective sense      : Maximize
Variables            :  109221  [Nneg: 1,  Box: 45496,  Free: 8928,
                                 Binary: 54796]
Objective nonzeros   :   20401
Linear constraints   :  246901  [Less: 82866,  Greater: 118424,  Equal: 45611]
  Nonzeros           :  619709
  RHS nonzeros       :  136514

Variables            : Min LB: -5000.000        Max UB: 1000000.       
Objective nonzeros   : Min   : 0.02500000       Max   : 3000.000       
Linear constraints   :
  Nonzeros           : Min   : 0.02500000       Max   : 1000000.       
  RHS nonzeros       : Min   : 0.02500000       Max   : 1000000.       
CPLEX> CPXPARAM_Parallel                                -1
CPXPARAM_Simplex_Tolerances_Feasibility          1.0000000000000001e-09
CPXPARAM_DetTimeLimit                            150000
CPXPARAM_MIP_Tolerances_MIPGap                   0.001
Warning:  No solution found from 1 MIP starts.
Retaining values of one MIP start for possible repair.
Tried aggregator 3 times.
MIP Presolve eliminated 172768 rows and 35491 columns.
MIP Presolve added 7723 rows and 0 columns.
MIP Presolve modified 53796 coefficients.
Aggregator did 26044 substitutions.
Reduced MIP has 55812 rows, 47302 columns, and 177814 nonzeros.
Reduced MIP has 18755 binaries, 0 generals, 0 SOSs, and 0 indicators.
Presolve time = 0.61 sec. (379.80 ticks)
Probing fixed 697 vars, tightened 10866 bounds.
Probing time = 0.41 sec. (17.45 ticks)
Tried aggregator 2 times.
MIP Presolve eliminated 1578 rows and 1405 columns.
MIP Presolve modified 7074 coefficients.
Aggregator did 96 substitutions.
Reduced MIP has 54138 rows, 45801 columns, and 172789 nonzeros.
Reduced MIP has 18056 binaries, 0 generals, 0 SOSs, and 0 indicators.
Presolve time = 0.33 sec. (280.48 ticks)
Probing fixed 0 vars, tightened 355 bounds.
Probing time = 0.56 sec. (19.04 ticks)
Clique table members: 96894.
MIP emphasis: balance optimality and feasibility.
MIP search method: dynamic search.
Parallel mode: opportunistic, using up to 32 threads.
Root relaxation solution time = 1.81 sec. (3030.63 ticks)

        Nodes                                         Cuts/
   Node  Left     Objective  IInf  Best Integer    Best Bound    ItCnt     Gap

      0     0     1852.7766   176                   1852.7766    12893         
      0     0     1852.7766    11                    Cuts: 79    12942         
      0     0     1852.7766    12                    Cuts: 11    12948         
      0     0     1852.7766    13                     Cuts: 5    12951         
Repair heuristic found nothing.
      0    33      867.8933     6                   Covers: 2    13162         
Elapsed time = 14.74 sec. (8625.57 ticks, tree = 0.02 MB, solutions = 0)
    176    93     -171.4041     5                   1852.4811    14146         
    454    60     1683.4200     6                   1852.4811    13311         
    698   296     1467.0521     3                   1852.4811    15567         
    936   480     1575.3633     6                   1852.4811    21704         
   1170   779     1464.8302     3                   1852.4811    25089         
   1345  1346     1730.3503     5                   1852.4811    37803         
   1527  1137     -294.6558     6                   1852.4811    31546         
   1752  1091     1638.7458     3                   1852.4811    30790         
*  1808+  696                         1628.2698     1852.4811            13.77%
   3135   663     1744.2823    14     1630.4918     1852.4811    48549   13.61%
Elapsed time = 33.66 sec. (11554.18 ticks, tree = 22.12 MB, solutions = 4)
   4590  1172     1709.7477     7     1630.4918     1852.4811    59001   13.61%
   5987  2255     1778.8170    18     1630.4918     1852.4811    65063   13.61%
   6108  3417    infeasible           1630.4918     1736.9765    82911    6.53%
   6183    46     1661.7728    47     1630.4918     1732.5905    86198    6.26%
   6655    47     1634.2264    45     1630.4918     1732.5905    86250    6.26%
   7385    47     1665.2905    42     1630.4918     1712.2731    85635    5.02%
   8436   139        cutoff           1630.4918     1647.3039   116893    1.03%
   9480    97     1636.6348    56     1630.4918     1647.3039   109696    1.03%
  10291    98        cutoff           1630.4918     1647.3039   137364    1.03%
  10762    52        cutoff           1630.4918     1644.2235    86737    0.84%
Elapsed time = 102.31 sec. (30552.80 ticks, tree = 0.16 MB, solutions = 4)
  11067   148        cutoff           1630.4918     1644.2235   120628    0.84%
  11146   133        cutoff           1630.4918     1644.2235   121720    0.84%

GUB cover cuts applied:  1
Clique cuts applied:  1
Cover cuts applied:  20
Implied bound cuts applied:  48
Flow cuts applied:  180
Mixed integer rounding cuts applied:  40
Zero-half cuts applied:  2
Gomory fractional cuts applied:  53

Root node processing (before b&c):
  Real time             =   10.48 sec. (8518.84 ticks)
Parallel b&c, 32 threads:
  Real time             =   92.27 sec. (24141.10 ticks)
  Sync time (average)   =   13.57 sec.
  Wait time (average)   =    0.29 sec.
                          ------------
Total (root+branch&cut) =  102.75 sec. (32659.95 ticks)

Solution pool: 4 solutions saved.

MIP - Integer optimal, tolerance (0.001/1e-06):  Objective =  1.6304917650e+03
Current MIP best bound =  1.6321106002e+03 (gap = 1.61884, 0.10%)
Solution time =  102.80 sec.  Iterations = 142569  Nodes = 11156 (76)
Deterministic time = 32660.26 ticks  (317.72 ticks/sec)

CPLEX> Incumbent solution written to file 'C:\Users\llavin\Desktop\test826\logs\tmp29hih487.cplex.sol'.
CPLEX> Exporting results... 
